num_offers = 35;
num_halls = 10;
start=[18,85,49,57,41,57,57,28,49,22,46,14,9,62,67,15,80,84,33,5,25,3,4,20,8,74,64,21,3,61,33,33,20,21,64];
end=[68,92,82,64,94,63,89,55,74,77,51,76,44,87,70,57,89,90,36,92,95,51,44,38,16,100,68,32,5,87,93,97,65,99,89];
price=[4117,388,3052,491,1686,302,2091,1592,331,2436,122,2218,2117,846,214,2010,333,108,57,6729,788,1247,3584,1529,597,948,70,1100,62,2335,4453,2801,2694,3940,903];
requirement=[870,842,591,735,525,635,562,899,791,288,736,868,822,416,929,752,255,514,847,206,643,684,947,619,764,752,603,330,764,277,477,357,858,572,905];
capacity=[446,997,378,251,981,983,879,489,419,864];
